Route #1: 1 43 54 45 52 18 27 40 17 1 
Route #2: 1 9 31 10 46 50 3 6 36 1 
Route #3: 1 26 2 11 42 7 21 33 48 1 
Route #4: 1 12 38 30 4 53 51 49 35 1 
Route #5: 1 24 28 32 22 56 8 1 
Route #6: 1 1 19 44 13 23 37 1 
Route #7: 1 55 20 16 34 14 1 
Route #8: 1 29 47 5 41 25 15 1 
Route #9: 1 39 1 

Cost 1450.79
Time 0.5056


 * Another infos *

 Iterations: 57 Time: 0.5056 sec - 0.0084 min - 0.0001 horas
0.0000 h 0.0084 min
Problem dimension: 57
